p wcnf 149 177 178 
1 40 -134 0 
1 -18 -137 0 
1 -147 113 0 
1 -89 62 0 
1 -80 34 0 
1 45 -77 0 
1 65 38 0 
1 143 -142 0 
1 -124 125 0 
1 114 111 0 
1 80 26 0 
1 -9 -52 0 
1 113 27 0 
1 77 -131 0 
1 107 77 0 
1 132 -24 0 
1 -139 24 0 
1 47 -124 0 
1 -15 -88 0 
1 -52 -148 0 
1 97 35 0 
1 27 -48 0 
1 45 67 0 
1 31 -80 0 
1 71 -141 0 
1 -17 -67 0 
1 -77 26 0 
1 -53 102 0 
1 124 148 0 
1 140 72 0 
1 106 -132 0 
1 -101 -88 0 
1 -84 -96 0 
1 54 14 0 
1 -127 -21 0 
1 83 -136 0 
1 -2 67 0 
1 -95 92 0 
1 110 -51 0 
1 118 102 0 
1 66 91 0 
1 -115 -26 0 
1 22 -26 0 
1 36 -115 0 
1 46 21 0 
1 22 -146 0 
1 -131 -62 0 
1 -56 -104 0 
1 -131 -105 0 
1 145 -71 0 
1 -148 -104 0 
1 111 39 0 
1 99 125 0 
1 -4 -9 0 
1 77 15 0 
1 12 94 0 
1 9 101 0 
1 66 18 0 
1 -1 116 0 
1 -149 54 0 
1 122 102 0 
1 -38 13 0 
1 -30 118 0 
1 113 108 0 
1 105 -7 0 
1 -61 -146 0 
1 -107 -122 0 
1 55 -82 0 
1 37 7 0 
1 26 -50 0 
1 18 -137 0 
1 -115 -65 0 
1 -62 10 0 
1 94 -34 0 
1 33 -34 0 
1 15 21 0 
1 46 61 0 
1 -37 -99 0 
1 43 -76 0 
1 85 -98 0 
1 91 -59 0 
1 103 23 0 
1 -71 63 0 
1 25 -47 0 
1 -146 -11 0 
1 -70 47 0 
1 97 -130 0 
1 121 -120 0 
1 23 62 0 
1 28 -149 0 
1 120 -36 0 
1 -17 115 0 
1 -86 29 0 
1 122 -130 0 
1 6 66 0 
1 -146 -31 0 
1 38 -58 0 
1 4 -149 0 
1 1 -119 0 
1 85 128 0 
1 75 -101 0 
1 7 14 0 
1 34 -18 0 
1 -20 -5 0 
1 -134 -63 0 
1 49 -101 0 
1 107 -1 0 
1 36 -69 0 
1 34 -125 0 
1 -53 82 0 
1 131 126 0 
1 104 9 0 
1 -148 -5 0 
1 98 -139 0 
1 83 97 0 
1 69 147 0 
1 142 36 0 
1 -62 19 0 
1 39 5 0 
1 11 -86 0 
1 -103 -39 0 
1 -87 139 0 
1 -132 55 0 
1 129 109 0 
1 -140 -30 0 
1 -86 -148 0 
1 -30 -99 0 
1 -82 -77 0 
1 30 7 0 
1 -74 117 0 
1 -136 -53 0 
1 -19 65 0 
1 -134 -76 0 
1 -80 -32 0 
1 -137 68 0 
1 -57 146 0 
1 -149 134 0 
1 -110 89 0 
1 129 117 0 
1 51 -71 0 
1 33 46 0 
1 -124 71 0 
1 128 19 0 
1 127 -145 0 
1 68 -64 0 
1 -40 -47 0 
1 -73 -29 0 
1 135 25 0 
1 125 -49 0 
1 85 128 0 
1 -17 71 0 
1 72 123 0 
1 22 -122 0 
1 -88 -60 0 
1 42 103 0 
1 -136 105 0 
1 142 19 0 
1 -44 -22 0 
1 -102 -130 0 
1 -144 19 0 
1 95 -38 0 
1 -92 145 0 
1 67 -59 0 
1 78 -41 0 
1 141 -66 0 
1 -69 -66 0 
1 57 56 0 
1 27 79 0 
1 -29 37 0 
1 -105 16 0 
1 -149 -119 0 
1 109 80 0 
1 -135 -121 0 
1 -66 -124 0 
1 70 -91 0 
1 -132 -16 0 
1 -42 91 0 
